145
0 80 6 105 37 125 75 27 119 57 
127 15 11 103 136 131 55 58 97 89 
142 48 13 56 123 117 88 102 7 51 
116 101 59 132 10 54 43 86 24 28 
76 74 83 23 135 44 130 144 69 92 
90 111 5 68 137 118 64 21 60 31 
143 2 109 35 81 29 122 20 30 73 
128 19 9 45 32 94 4 78 113 133 
26 63 114 108 42 8 110 85 33 52 
3 84 93 70 112 141 124 40 107 106 
47 49 99 67 129 77 16 140 72 120 
17 62 91 22 34 82 50 1 134 121 
126 65 46 79 100 38 36 25 53 61 
115 87 98 104 18 66 14 39 139 71 
95 138 41 96 12 
